data_global
_chemical_name_mineral 'Andrieslombaardite'
loop_
_publ_author_name
'Cabri L J'
'McDonald A M'
'Oberthur T'
'Tamura N'
'Vymazalova A'
'Ross K C'
'Melcher F'
_journal_name_full 'South African Journal of'
_journal_volume Geology 
_journal_year 2023
_journal_page_first 
_journal_page_last doi:10.25131/sajg.126.0011
_publ_section_title
;
 Andrieslombaardite, RhSbS, a new platinum-group mineral from the platiniferous
 Onverwacht Pipe, Republic of South Africa
;
_database_code_amcsd 0021202
_chemical_compound_source 'Synthetic'
_chemical_formula_sum 'Rh Sb S'
_cell_length_a 6.0278
_cell_length_b 6.0278
_cell_length_c 6.0278
_cell_angle_alpha 90
_cell_angle_beta 90
_cell_angle_gamma 90
_cell_volume 219.016
_exptl_crystal_density_diffrn      7.786
_symmetry_space_group_name_H-M 'P 21 3'
loop_
_space_group_symop_operation_xyz
  'x,y,z'
  '1/2-z,-x,1/2+y'
  '-z,1/2+x,1/2-y'
  '1/2+z,1/2-x,-y'
  'z,x,y'
  '1/2+y,1/2-z,-x'
  '1/2-y,-z,1/2+x'
  '-y,1/2+z,1/2-x'
  'y,z,x'
  '-x,1/2+y,1/2-z'
  '1/2+x,1/2-y,-z'
  '1/2-x,-y,1/2+z'
loop_
_atom_site_label
_atom_site_fract_x
_atom_site_fract_y
_atom_site_fract_z
_atom_site_U_iso_or_equiv
Rh   0.99740   0.99740   0.99740   0.27100
Sb   0.62230   0.62230   0.62230   0.16300
S   0.38550   0.38550   0.38550 ?
