data_global
_chemical_name_mineral 'Natrite'
loop_
_publ_author_name
'Arakcheeva A'
'Bindi L'
'Pattison P'
'Meisser N'
'Chapuis G'
'Pekov I'
_journal_name_full 'American Mineralogist'
_journal_volume 95 
_journal_year 2010
_journal_page_first 574
_journal_page_last 581
_publ_section_title
;
 The incommensurately modulated structures of natural natrite at 120
 and 293 K from synchrotron X-ray data
 T = 120 K
;
_database_code_amcsd 0005042
_chemical_compound_source 'Mt. Koashva, Khibiny massif, Kola peninsula, Russia'
_chemical_formula_sum 'Na1.959 C O3'
_cell_length_a 8.825
_cell_length_b 5.194
_cell_length_c 5.953
_cell_angle_alpha 90
_cell_angle_beta 101.83
_cell_angle_gamma 90
_cell_volume 267.072
_exptl_crystal_density_diffrn      2.612
_symmetry_space_group_name_H-M 'C 2/m'
loop_
_space_group_symop_operation_xyz
  'x,y,z'
  '1/2+x,1/2+y,z'
  'x,-y,z'
  '1/2+x,1/2-y,z'
  '-x,y,-z'
  '1/2-x,1/2+y,-z'
  '-x,-y,-z'
  '1/2-x,1/2-y,-z'
loop_
_atom_site_label
_atom_site_fract_x
_atom_site_fract_y
_atom_site_fract_z
_atom_site_occupancy
_atom_site_U_iso_or_equiv
Na1   0.00000   0.00000   0.00000   0.97600   0.01170
Na2   0.00000   0.00000   0.50000   0.98700   0.01170
Na3   0.17101   0.50000   0.74766   0.97700   0.01550
C   0.16446   0.50000   0.24920   1.00000   0.01030
O1   0.10211   0.29314   0.28695   1.00000   0.01860
O2   0.28945   0.50000   0.17451   1.00000   0.01590
