data_global
_chemical_name_mineral 'Schreibersite'
loop_
_publ_author_name
'Skala R'
'Cisarova I'
_journal_name_full 'Physics and Chemistry of Minerals'
_journal_volume 31 
_journal_year 2005
_journal_page_first 721
_journal_page_last 732
_publ_section_title
;
 Crystal structure of meteoritic schreibersites: determination of absolute structure
 Sample: Acuna
;
_database_code_amcsd 0008924
_chemical_formula_sum '(Fe2.26 Ni.74) P'
_cell_length_a 9.0680
_cell_length_b 9.0680
_cell_length_c 4.4610
_cell_angle_alpha 90
_cell_angle_beta 90
_cell_angle_gamma 90
_cell_volume 366.822
_exptl_crystal_density_diffrn      7.265
_symmetry_space_group_name_H-M 'I -4'
loop_
_space_group_symop_operation_xyz
  'x,y,z'
  '1/2+x,1/2+y,1/2+z'
  'y,-x,-z'
  '1/2+y,1/2-x,1/2-z'
  '-x,-y,z'
  '1/2-x,1/2-y,1/2+z'
  '-y,x,-z'
  '1/2-y,1/2+x,1/2-z'
loop_
_atom_site_label
_atom_site_fract_x
_atom_site_fract_y
_atom_site_fract_z
_atom_site_occupancy
_atom_site_U_iso_or_equiv
Fe1   0.10714   0.92081   0.23120   0.89000   0.01070
Ni1   0.10714   0.92081   0.23120   0.11000   0.01070
Fe2   0.03225   0.63920   0.98300   0.81000   0.01020
Ni2   0.03225   0.63920   0.98300   0.19000   0.01020
Fe3   0.21910   0.82938   0.75160   0.56000   0.01020
Ni3   0.21910   0.82938   0.75160   0.44000   0.01020
P   0.04670   0.70780   0.48720   1.00000   0.00970
loop_
_atom_site_aniso_label
_atom_site_aniso_U_11
_atom_site_aniso_U_22
_atom_site_aniso_U_33
_atom_site_aniso_U_12
_atom_site_aniso_U_13
_atom_site_aniso_U_23
Fe1 0.01080 0.01160 0.00960 0.00010 -0.00060 0.00030
Ni1 0.01080 0.01160 0.00960 0.00010 -0.00060 0.00030
Fe2 0.01010 0.01110 0.00920 -0.00020 0.00050 -0.00020
Ni2 0.01010 0.01110 0.00920 -0.00020 0.00050 -0.00020
Fe3 0.01130 0.01040 0.00890 -0.00030 0.00010 0.00080
Ni3 0.01130 0.01040 0.00890 -0.00030 0.00010 0.00080
P 0.00960 0.01170 0.00780 -0.00020 -0.00090 0.00070
