data_global
_chemical_name_mineral 'Sodium'
loop_
_publ_author_name
'Barrett C S'
_journal_name_full 'Acta Crystallographica'
_journal_volume 9 
_journal_year 1956
_journal_page_first 671
_journal_page_last 677
_publ_section_title
;
 X-ray study of the alkali metals at low temperatures
 Sample: at T = 5 K
 Note: lattice parameters are average of 4 values
;
_database_code_amcsd 0009182
_chemical_compound_source 'Synthetic'
_chemical_formula_sum 'Na'
_cell_length_a 3.767
_cell_length_b 3.767
_cell_length_c 6.154
_cell_angle_alpha 90
_cell_angle_beta 90
_cell_angle_gamma 120
_cell_volume 75.627
_exptl_crystal_density_diffrn      1.010
_symmetry_space_group_name_H-M 'P 63/m m c'
loop_
_space_group_symop_operation_xyz
  'x,y,z'
  '-x,-x+y,1/2+z'
  'x,x-y,1/2-z'
  '-x+y,-x,1/2-z'
  'x-y,x,1/2+z'
  '-y,-x,z'
  'y,x,-z'
  'y,-x+y,-z'
  '-y,x-y,z'
  'x-y,-y,1/2+z'
  '-x+y,y,1/2-z'
  'x,y,1/2-z'
  '-x,-y,1/2+z'
  'x,x-y,z'
  '-x,-x+y,-z'
  'x-y,x,-z'
  '-x+y,-x,z'
  'y,x,1/2+z'
  '-y,-x,1/2-z'
  '-y,x-y,1/2-z'
  'y,-x+y,1/2+z'
  '-x+y,y,z'
  'x-y,-y,-z'
  '-x,-y,-z'
loop_
_atom_site_label
_atom_site_fract_x
_atom_site_fract_y
_atom_site_fract_z
Na   0.33333   0.66667   0.25000
