data_global
_chemical_name_mineral 'Yuanfuliite'
loop_
_publ_author_name
'Bigi S'
'Brigatti M F'
'Capedri S'
_journal_name_full 'American Mineralogist'
_journal_volume 76 
_journal_year 1991
_journal_page_first 1380
_journal_page_last 1388
_publ_section_title
;
 Crystal chemistry of Fe- and Cr-rich warwickite
 sample S1
;
_database_code_amcsd 0001388
_chemical_compound_source 'Jumilla, Murcia province, southeast Spain'
_chemical_formula_sum 'B Fe.85 Cr.02 Ti.04 Al.02 Mg1.07 O4'
_cell_length_a 9.246
_cell_length_b 3.0927
_cell_length_c 9.384
_cell_angle_alpha 90
_cell_angle_beta 90
_cell_angle_gamma 90
_cell_volume 268.336
_exptl_crystal_density_diffrn      3.757
_symmetry_space_group_name_H-M 'P n m a'
loop_
_space_group_symop_operation_xyz
  'x,y,z'
  'x,1/2-y,z'
  '-x,1/2+y,-z'
  '1/2-x,1/2+y,1/2+z'
  '1/2+x,1/2-y,1/2-z'
  '1/2+x,y,1/2-z'
  '1/2-x,-y,1/2+z'
  '-x,-y,-z'
loop_
_atom_site_label
_atom_site_fract_x
_atom_site_fract_y
_atom_site_fract_z
_atom_site_occupancy
B   0.16780   0.25000   0.87410   1.00000
Fe1   0.11564   0.25000   0.56885   0.85000
Cr1   0.11564   0.25000   0.56885   0.02000
Ti1   0.11564   0.25000   0.56885   0.04000
Al1   0.11564   0.25000   0.56885   0.02000
Mg1   0.11564   0.25000   0.56885   0.07000
Mg2   0.10278   0.25000   0.18992   1.00000
O1   0.02120   0.25000   0.86480   1.00000
O2   0.24690   0.25000   0.74650   1.00000
O3   0.23870   0.25000   0.00640   1.00000
O4   0.00910   0.25000   0.38700   1.00000
loop_
_atom_site_aniso_label
_atom_site_aniso_U_11
_atom_site_aniso_U_22
_atom_site_aniso_U_33
_atom_site_aniso_U_12
_atom_site_aniso_U_13
_atom_site_aniso_U_23
B 0.00953 0.01139 0.01294 0.00000 0.00088 0.00000
Fe1 0.01473 0.01294 0.01338 0.00000 -0.00088 0.00000
Cr1 0.01473 0.01294 0.01338 0.00000 -0.00088 0.00000
Ti1 0.01473 0.01294 0.01338 0.00000 -0.00088 0.00000
Al1 0.01473 0.01294 0.01338 0.00000 -0.00088 0.00000
Mg1 0.01473 0.01294 0.01338 0.00000 -0.00088 0.00000
Mg2 0.01429 0.01483 0.01651 0.00000 0.00044 0.00000
O1 0.01169 0.01294 0.01428 0.00000 -0.00132 0.00000
O2 0.01386 0.01163 0.01606 0.00000 0.00088 0.00000
O3 0.01213 0.01585 0.01205 0.00000 0.00044 0.00000
O4 0.01126 0.01492 0.01160 0.00000 0.00044 0.00000
